c 4 __LINUXTHREADS_OLD__
c 6 __UCLIBC_HAS_CRYPT__
c 1 __UCLIBC_HAS_THREADS_NATIVE__
c 3 __UCLIBC_HAS_XLOCALE__
c 7 __UCLIBC_HAS_LOCALE__
c 2 __UCLIBC_HAS_CRYPT_IMPL__
c 8 __LINUXTHREADS_NEW__
c 5 __UCLIBC_HAS_THREADS__
p cnf 8 1
1 -4 -3 -2 -5 7 -6 8 1
